NAME /Users/henri/Research/solvers/instances/idol-instances/robust/collection/cbp_Subramanyam_et_al_2020/CapBud_N20_13/models/uncertain_technology_matrix/
ROWS
 N  OBJ
 L  capacity
 L  c_2990
 L  c_2991
 L  c_2992
 L  c_2993
 L  c_2994
 L  c_2995
 L  c_2996
 L  c_2997
 L  c_2998
 L  c_2999
 L  c_3000
 L  c_3001
 L  c_3002
 L  c_3003
 L  c_3004
 L  c_3005
 L  c_3006
 L  c_3007
 L  c_3008
 L  c_3009
COLUMNS
    MARKER    'MARKER'                 'INTORG'
    x_0        OBJ        -3.79387
    x_0        c_2990     1
    x_0        capacity   0.758774
    x_1        OBJ        -1.38471
    x_1        c_2991     1
    x_1        capacity   0.276942
    x_2        OBJ        -7.72709
    x_2        c_2992     1
    x_2        capacity   1.54542
    x_3        OBJ        -0.748372
    x_3        c_2993     1
    x_3        capacity   0.149674
    x_4        OBJ        -1.94193
    x_4        c_2994     1
    x_4        capacity   0.388387
    x_5        OBJ        -0.646789
    x_5        c_2995     1
    x_5        capacity   0.129358
    x_6        OBJ        -2.83626
    x_6        c_2996     1
    x_6        capacity   0.567251
    x_7        OBJ        -7.55941
    x_7        c_2997     1
    x_7        capacity   1.51188
    x_8        OBJ        -9.47637
    x_8        c_2998     1
    x_8        capacity   1.89527
    x_9        OBJ        -8.95105
    x_9        c_2999     1
    x_9        capacity   1.79021
    x_10       OBJ        -5.36123
    x_10       c_3000     1
    x_10       capacity   1.07225
    x_11       OBJ        -5.008
    x_11       c_3001     1
    x_11       capacity   1.0016
    x_12       OBJ        -9.86957
    x_12       c_3002     1
    x_12       capacity   1.97391
    x_13       OBJ        -5.0435
    x_13       c_3003     1
    x_13       capacity   1.0087
    x_14       OBJ        -7.52376
    x_14       c_3004     1
    x_14       capacity   1.50475
    x_15       OBJ        -9.49392
    x_15       c_3005     1
    x_15       capacity   1.89878
    x_16       OBJ        -0.0644771
    x_16       c_3006     1
    x_16       capacity   0.0128954
    x_17       OBJ        -0.718022
    x_17       c_3007     1
    x_17       capacity   0.143604
    x_18       OBJ        -5.24518
    x_18       c_3008     1
    x_18       capacity   1.04904
    x_19       OBJ        -0.042617
    x_19       c_3009     1
    x_19       capacity   0.0085234
    y_0        OBJ        -3.0351
    y_0        c_2990     1
    y_0        capacity   0.758774
    y_1        OBJ        -1.10777
    y_1        c_2991     1
    y_1        capacity   0.276942
    y_2        OBJ        -6.18168
    y_2        c_2992     1
    y_2        capacity   1.54542
    y_3        OBJ        -0.598698
    y_3        c_2993     1
    y_3        capacity   0.149674
    y_4        OBJ        -1.55355
    y_4        c_2994     1
    y_4        capacity   0.388387
    y_5        OBJ        -0.517431
    y_5        c_2995     1
    y_5        capacity   0.129358
    y_6        OBJ        -2.26901
    y_6        c_2996     1
    y_6        capacity   0.567251
    y_7        OBJ        -6.04753
    y_7        c_2997     1
    y_7        capacity   1.51188
    y_8        OBJ        -7.58109
    y_8        c_2998     1
    y_8        capacity   1.89527
    y_9        OBJ        -7.16084
    y_9        c_2999     1
    y_9        capacity   1.79021
    y_10       OBJ        -4.28898
    y_10       c_3000     1
    y_10       capacity   1.07225
    y_11       OBJ        -4.0064
    y_11       c_3001     1
    y_11       capacity   1.0016
    y_12       OBJ        -7.89565
    y_12       c_3002     1
    y_12       capacity   1.97391
    y_13       OBJ        -4.0348
    y_13       c_3003     1
    y_13       capacity   1.0087
    y_14       OBJ        -6.01901
    y_14       c_3004     1
    y_14       capacity   1.50475
    y_15       OBJ        -7.59514
    y_15       c_3005     1
    y_15       capacity   1.89878
    y_16       OBJ        -0.0515817
    y_16       c_3006     1
    y_16       capacity   0.0128954
    y_17       OBJ        -0.574417
    y_17       c_3007     1
    y_17       capacity   0.143604
    y_18       OBJ        -4.19615
    y_18       c_3008     1
    y_18       capacity   1.04904
    y_19       OBJ        -0.0340936
    y_19       c_3009     1
    y_19       capacity   0.0085234
    MARKER    'MARKER'                 'INTEND'
RHS
    RHS       capacity   46.7181
    RHS       c_2990     1
    RHS       c_2991     1
    RHS       c_2992     1
    RHS       c_2993     1
    RHS       c_2994     1
    RHS       c_2995     1
    RHS       c_2996     1
    RHS       c_2997     1
    RHS       c_2998     1
    RHS       c_2999     1
    RHS       c_3000     1
    RHS       c_3001     1
    RHS       c_3002     1
    RHS       c_3003     1
    RHS       c_3004     1
    RHS       c_3005     1
    RHS       c_3006     1
    RHS       c_3007     1
    RHS       c_3008     1
    RHS       c_3009     1
BOUNDS
 LI BND       x_0        0
 UI BND       x_0        1
 LI BND       x_1        0
 UI BND       x_1        1
 LI BND       x_2        0
 UI BND       x_2        1
 LI BND       x_3        0
 UI BND       x_3        1
 LI BND       x_4        0
 UI BND       x_4        1
 LI BND       x_5        0
 UI BND       x_5        1
 LI BND       x_6        0
 UI BND       x_6        1
 LI BND       x_7        0
 UI BND       x_7        1
 LI BND       x_8        0
 UI BND       x_8        1
 LI BND       x_9        0
 UI BND       x_9        1
 LI BND       x_10       0
 UI BND       x_10       1
 LI BND       x_11       0
 UI BND       x_11       1
 LI BND       x_12       0
 UI BND       x_12       1
 LI BND       x_13       0
 UI BND       x_13       1
 LI BND       x_14       0
 UI BND       x_14       1
 LI BND       x_15       0
 UI BND       x_15       1
 LI BND       x_16       0
 UI BND       x_16       1
 LI BND       x_17       0
 UI BND       x_17       1
 LI BND       x_18       0
 UI BND       x_18       1
 LI BND       x_19       0
 UI BND       x_19       1
 LI BND       y_0        0
 UI BND       y_0        1
 LI BND       y_1        0
 UI BND       y_1        1
 LI BND       y_2        0
 UI BND       y_2        1
 LI BND       y_3        0
 UI BND       y_3        1
 LI BND       y_4        0
 UI BND       y_4        1
 LI BND       y_5        0
 UI BND       y_5        1
 LI BND       y_6        0
 UI BND       y_6        1
 LI BND       y_7        0
 UI BND       y_7        1
 LI BND       y_8        0
 UI BND       y_8        1
 LI BND       y_9        0
 UI BND       y_9        1
 LI BND       y_10       0
 UI BND       y_10       1
 LI BND       y_11       0
 UI BND       y_11       1
 LI BND       y_12       0
 UI BND       y_12       1
 LI BND       y_13       0
 UI BND       y_13       1
 LI BND       y_14       0
 UI BND       y_14       1
 LI BND       y_15       0
 UI BND       y_15       1
 LI BND       y_16       0
 UI BND       y_16       1
 LI BND       y_17       0
 UI BND       y_17       1
 LI BND       y_18       0
 UI BND       y_18       1
 LI BND       y_19       0
 UI BND       y_19       1
ENDATA
